50
4839

978 870
9 705
546 943
666 118
870 462
911 174
752 838
509 844
698 927
8 615
792 242
871 424
268 420
249 907
70 585
938 300
611 586
93 935
677 591
34 112
773 304
991 948
577 27
522 691
871 808
643 812
191 56
40 570
399 119
454 9
989 527
836 350
139 870
761 891
932 817
7 56
201 973
980 51
815 385
698 22
130 454
62 596
412 464
262 448
223 174
787 659
217 163
767 248
791 975
597 976
